/*********************************************
 * OPL 12.8.0.0 Data
 * Author: tomhs
 * Creation Date: Nov 15, 2018 at 9:11:08 AM
 *********************************************/
 n = 4;
 m = 3;

 weight = [0.97,1,1];	
 profit = [310,380,350,285];
 
 a_weight = [18,15,23,12];
 volume = [480,650,580,390];
 
 weight_cap = [10,16,8];
 vol_cap = [6800,8700,5300];